n_res = 4;
rcap = [15, 25, 56, 72];
rtype = [1, 1, 2, 2];
n_tasks = 16;
modes = [ {1, 2, 3}, {4, 5, 6}, {7, 8, 9}, {10, 11, 12}, {13, 14, 15}, {16, 17, 18}, {19, 20, 21}, {22, 23, 24}, {25, 26, 27}, {28, 29, 30}, {31, 32, 33}, {34, 35, 36}, {37, 38, 39}, {40, 41, 42}, {43, 44, 45}, {46, 47, 48} ];
succ = [ {5, 8, 10}, {13}, {4, 10, 15}, {11, 16}, {6, 7, 11}, {9}, {9, 13, 15}, {9, 13, 15}, {12}, {11, 12}, {14}, {14, 16}, {14, 16}, {}, {}, {} ];
n_opt = 48;
dur = [3, 5, 10, 3, 6, 7, 6, 7, 9, 1, 3, 7, 6, 7, 8, 5, 7, 9, 2, 2, 4, 1, 6, 8, 1, 2, 8, 4, 5, 9, 4, 5, 10, 5, 6, 9, 5, 9, 10, 5, 5, 7, 5, 7, 10, 2, 4, 7];
rreq = [|  0,  0,  0,  0,  0,  6,  0,  2,  0,  0,  0,  4,  4,  0,  0,  0,  0,  4,  3,  0,  0,  0,  0,  0,  0,  0,  4,  7,  5,  4,  2,  0,  0,  0,  6,  0,  3,  0,  0,  7,  0,  7,  0,  8,  5,  5,  4,  3
        |  9,  9,  9,  6,  2,  0,  5,  0,  5,  3,  3,  0,  0, 10,  9, 10,  3,  0,  0, 10,  8,  7,  7,  7,  2,  2,  0,  0,  0,  0,  0,  3,  3,  2,  0,  2,  0,  9,  6,  0,  2,  0,  8,  0,  0,  0,  0,  0
        |  0,  5,  3,  0,  0,  0,  3,  3,  0,  6,  5,  0,  8,  0,  4,  0,  6,  6,  0,  6,  0,  0,  7,  5,  0,  0,  0,  7,  0,  0,  0,  5,  2,  4,  0,  3,  0,  0,  4,  0,  5,  0,  0,  3,  2,  0,  6,  4
        |  9,  0,  0,  7,  5,  3,  0,  0,  3,  0,  0,  4,  0,  8,  0,  3,  0,  0,  2,  0,  2,  6,  0,  0,  6,  5,  5,  0,  8,  8,  5,  0,  0,  0,  7,  0,  9,  1,  0,  5,  0,  4,  9,  0,  0,  2,  0,  0 |];
